* ENCODING=ISO-8859-1
NAME          CPLEX
ROWS
 N  obj1    
 G  c1      
 G  c2      
 G  c3      
 G  c4      
 G  c5      
 G  c6      
 G  c7      
 G  c8      
 G  c9      
 G  c10     
 G  c11     
 G  c12     
 G  c13     
 G  c14     
 G  c15     
 G  c16     
 G  c17     
 G  c18     
 G  c19     
 G  c20     
 G  c21     
 G  c22     
 G  c23     
 G  c24     
 G  c25     
 G  c26     
 G  c27     
 G  c28     
 G  c29     
 G  c30     
COLUMNS
    MARK0000  'MARKER'                 'INTORG'
    x1        obj1                            1
    x1        c12                           989
    x2        obj1                            1
    x2        c1                            496
    x2        c12                           383
    x2        c15                           211
    x2        c17                           487
    x2        c18                           101
    x2        c22                           917
    x3        obj1                            1
    x3        c12                           629
    x3        c13                           445
    x3        c18                           391
    x3        c30                           992
    x4        obj1                            1
    x4        c5                            325
    x4        c8                            610
    x4        c9                            654
    x4        c14                           523
    x4        c15                           645
    x4        c29                           104
    x5        obj1                            1
    x6        obj1                            1
    x6        c16                           137
    x7        obj1                            1
    x7        c9                            477
    x7        c13                           163
    x7        c20                           109
    x7        c21                           791
    x7        c25                           318
    x7        c27                           246
    x7        c28                           669
    x7        c30                           174
    x8        obj1                            1
    x8        c23                           516
    x9        obj1                            1
    x9        c6                            181
    x9        c14                           981
    x9        c16                           160
    x10       obj1                            1
    x10       c8                            443
    x10       c10                           944
    x10       c16                           898
    x10       c22                           904
    x11       obj1                            1
    x11       c12                           989
    x11       c24                           501
    x11       c25                           262
    x12       obj1                            1
    x12       c16                           820
    x12       c20                           721
    x12       c21                           949
    x12       c30                           653
    x13       obj1                            1
    x13       c26                           493
    x14       obj1                            1
    x14       c19                           132
    x14       c23                           614
    x14       c27                           704
    x15       obj1                            1
    x15       c1                            817
    x15       c19                           971
    x15       c20                           650
    x15       c22                           179
    x15       c27                           719
    x16       obj1                            1
    x16       c8                            419
    x16       c12                           544
    x16       c28                           738
    x17       obj1                            1
    x18       obj1                            1
    x18       c11                           191
    x18       c18                           851
    x18       c29                           841
    x19       obj1                            1
    x19       c1                            862
    x19       c3                            852
    x19       c27                           771
    x20       obj1                            1
    x20       c1                            991
    x20       c18                           869
    x20       c21                           418
    x20       c27                           148
    x21       obj1                            1
    x22       obj1                            1
    x22       c5                            987
    x22       c28                           716
    x23       obj1                            1
    x23       c9                            643
    x24       obj1                            1
    x24       c7                            671
    x24       c9                            836
    x24       c11                           703
    x24       c21                           390
    x25       obj1                            1
    x25       c21                           823
    x26       obj1                            1
    x26       c1                            524
    x26       c11                           230
    x27       obj1                            1
    x27       c8                            927
    x27       c17                           586
    x27       c24                           633
    x28       obj1                            1
    x28       c11                           496
    x28       c17                           807
    x28       c21                           189
    x28       c29                           603
    x29       obj1                            1
    x29       c1                            387
    x29       c28                           599
    x30       obj1                            1
    x30       c2                            532
    x30       c9                            551
    x31       obj1                            1
    x31       c11                           759
    x31       c14                           469
    x31       c17                           260
    x31       c26                           580
    x32       obj1                            1
    x32       c2                            593
    x32       c3                            826
    x32       c17                           347
    x32       c20                           960
    x33       obj1                            1
    x33       c13                           889
    x33       c15                           444
    x33       c18                           977
    x33       c30                           650
    x34       obj1                            1
    x34       c4                            156
    x34       c8                            184
    x34       c15                           241
    x34       c17                           733
    x34       c20                           941
    x34       c23                           881
    x35       obj1                            1
    x35       c3                            652
    x36       obj1                            1
    x36       c1                            579
    x36       c10                           387
    x36       c19                           232
    x36       c26                           757
    x36       c28                           399
    x36       c30                           607
    x37       obj1                            1
    x37       c6                            800
    x37       c12                           174
    x37       c13                           799
    x37       c16                           454
    x37       c21                           261
    x38       obj1                            1
    x38       c12                           423
    x38       c28                           227
    x39       obj1                            1
    x39       c16                           132
    x39       c19                           198
    x40       obj1                            1
    x40       c2                            849
    x40       c18                           339
    x41       obj1                            1
    x41       c2                            776
    x41       c29                           433
    x42       obj1                            1
    x42       c8                            926
    x42       c9                            637
    x42       c19                           203
    x42       c20                           248
    x43       obj1                            1
    x43       c5                            893
    x43       c10                           675
    x43       c18                           497
    x44       obj1                            1
    x44       c2                            710
    x44       c18                           692
    x45       obj1                            1
    x45       c3                            490
    x46       obj1                            1
    x46       c13                           122
    x46       c15                           959
    x46       c27                           177
    x47       obj1                            1
    x47       c3                            378
    x47       c7                            297
    x47       c11                           183
    x47       c24                           390
    x48       obj1                            1
    x48       c7                            612
    x48       c20                           715
    x48       c25                           335
    x49       obj1                            1
    x49       c1                            563
    x49       c3                            594
    x49       c4                            470
    x49       c17                           942
    x50       obj1                            1
    x50       c9                            631
    x50       c16                           310
    x50       c18                           917
    x51       obj1                            1
    x51       c19                           315
    x51       c20                           364
    x51       c24                           855
    x52       obj1                            1
    x52       c5                            975
    x52       c12                           306
    x52       c24                           793
    x53       obj1                            1
    x53       c16                           811
    x53       c26                           805
    x54       obj1                            1
    x54       c7                            471
    x55       obj1                            1
    x55       c13                           109
    x55       c21                           465
    x56       obj1                            1
    x56       c2                            164
    x56       c5                            829
    x56       c8                            607
    x56       c15                           382
    x56       c22                           568
    x56       c25                           239
    x57       obj1                            1
    x57       c1                            467
    x57       c12                           929
    x57       c19                           228
    x58       obj1                            1
    x58       c4                            657
    x58       c6                            389
    x58       c11                           333
    x58       c13                           954
    x58       c21                           484
    x59       obj1                            1
    x59       c20                           837
    x59       c27                           311
    x59       c29                           715
    x60       obj1                            1
    x60       c14                           894
    x60       c25                           260
    MARK0001  'MARKER'                 'INTEND'
RHS
    rhs       c1                           2843
    rhs       c2                           1812
    rhs       c3                           1896
    rhs       c4                            642
    rhs       c5                           2005
    rhs       c6                            685
    rhs       c7                           1026
    rhs       c8                           2058
    rhs       c9                           2215
    rhs       c10                          1003
    rhs       c11                          1448
    rhs       c12                          2683
    rhs       c13                          1741
    rhs       c14                          1434
    rhs       c15                          1441
    rhs       c16                          1861
    rhs       c17                          2081
    rhs       c18                          2817
    rhs       c19                          1140
    rhs       c20                          2773
    rhs       c21                          2385
    rhs       c22                          1284
    rhs       c23                          1006
    rhs       c24                          1586
    rhs       c25                           707
    rhs       c26                          1318
    rhs       c27                          1538
    rhs       c28                          1674
    rhs       c29                          1348
    rhs       c30                          1538
BOUNDS
 LI bnd       x1        0
 LI bnd       x2        0
 LI bnd       x3        0
 LI bnd       x4        0
 LI bnd       x5        0
 LI bnd       x6        0
 LI bnd       x7        0
 LI bnd       x8        0
 LI bnd       x9        0
 LI bnd       x10       0
 LI bnd       x11       0
 LI bnd       x12       0
 LI bnd       x13       0
 LI bnd       x14       0
 LI bnd       x15       0
 LI bnd       x16       0
 LI bnd       x17       0
 LI bnd       x18       0
 LI bnd       x19       0
 LI bnd       x20       0
 LI bnd       x21       0
 LI bnd       x22       0
 LI bnd       x23       0
 LI bnd       x24       0
 LI bnd       x25       0
 LI bnd       x26       0
 LI bnd       x27       0
 LI bnd       x28       0
 LI bnd       x29       0
 LI bnd       x30       0
 LI bnd       x31       0
 LI bnd       x32       0
 LI bnd       x33       0
 LI bnd       x34       0
 LI bnd       x35       0
 LI bnd       x36       0
 LI bnd       x37       0
 LI bnd       x38       0
 LI bnd       x39       0
 LI bnd       x40       0
 LI bnd       x41       0
 LI bnd       x42       0
 LI bnd       x43       0
 LI bnd       x44       0
 LI bnd       x45       0
 LI bnd       x46       0
 LI bnd       x47       0
 LI bnd       x48       0
 LI bnd       x49       0
 LI bnd       x50       0
 LI bnd       x51       0
 LI bnd       x52       0
 LI bnd       x53       0
 LI bnd       x54       0
 LI bnd       x55       0
 LI bnd       x56       0
 LI bnd       x57       0
 LI bnd       x58       0
 LI bnd       x59       0
 LI bnd       x60       0
ENDATA
